M+/Instances/S1-15-M+/S1-10-15-1-s-M+.txt
     100      15    0.10
       2       2       3       2       3       2       2       3       1       3       3       1       1       3       3       3      12      16       3       2      12      13      11       0       8      16       9      15       3       9       2
       3       3       1       2       1       2       2       3       3       2       1       1       3       1       3      12      15       8       4      13      13      13       2      13      16      15       3       6      12       3       2
       1       3       3       3       1       3       2       3       2       1       1       2       1       3       2       1       2       0      11       0       1       9       6      13       1       7      15      10       4      15       2
       1       2       3       3       3       1       3       2       2       1       2       2       1       3       2       7       9      16      10       6      15       5       4       4      11       3       5      12       5      13       1
       3       3       1       1       2       2       2       3       1       3       1       1       1       1       1       5       0       5       4       2       6      11       6      11      13       4       8      10       9       2       1
       1       1       2       3       2       3       3       2       3       2       1       2       2       3       1       7      11       7       5       7      10       6       0       1      14      11       1      10       0       0       3
       2       1       3       1       2       2       1       2       1       2       1       3       1       1       2      10      16      15       0      10      16      14       2       4       2       8       3       5      14       9       2
       1       1       1       3       1       1       2       1       2       2       3       3       2       2       3      13      15      11       3      12       4      16      11       3      13       1       0      10       9       1       1
       1       2       2       1       2       2       1       1       3       2       3       1       2       1       1       0      12       5       4       5       1       5       0      11      14       0      13      15       3      15       3
       3       3       1       1       2       3       2       1       3       1       2       1       3       2       1       1      14       9      15       9       4       7       0       0      10       9      15      10       6       2       2
       3       3       1       3       3       1       2       3       2       1       2       3       2       2       3       6       0      15       0      13      15      11      11       8      13       7      11      16       0      15       1
       2       3       3       2       1       1       1       3       1       1       1       3       2       2       1       8      15       5      16       5       2      14       6      11       8      15      10       9       2       1       1
       2       1       3       1       3       2       3       2       1       3       3       3       1       1       3      16       3      11       9       8      12      10       0       7      13       5      16       1       0       3       1
       3       3       3       1       3       1       1       3       1       1       3       3       1       1       2       1      13      14       2       1       1      16       0      11       8       6       5       3       1       0       2
       2       3       1       1       3       2       1       3       3       3       2       2       2       3       2      14       1      10      15       3      14      11       1      10       9       7       5       6       6       7       1
       2       3       3       1       3       3       3       3       3       3       2       2       3       3       1      10       4       6       7       4      15       8      10       7       6      11      11       5       7      10       2
       1       2       1       3       2       1       3       2       1       2       2       1       3       3       1       6      13       2       6       3      11       2       0      11       1      16      11       9       3      16       2
       3       2       2       1       1       1       3       2       3       1       1       2       2       2       3       8      15      12       4       7       7      10       3       5       0       3      10       9       5       5       1
       3       3       1       1       2       3       2       1       3       1       2       2       3       3       3      16       0       6      12      13      11       4      13       8       2       6      15       0       4       9       2
       2       2       2       2       2       1       1       1       3       1       2       1       3       3       3       8      14       1      13      14       1      12       8       2      14       2      11      13       7       0       3
       2       2       1       3       2       2       1       2       2       3       3       2       2       2       1      15       5      10      12       4       2      14      16      13       7      15       3       7      16       5       1
       2       2       3       2       2       3       3       2       1       1       2       3       1       2       2      11       8      15       9       3      11      12       1      11      12       6       8      13       0       9       1
       1       2       1       2       3       3       2       2       2       2       2       2       2       2       3      13       6      16       8       7       3       9      13       1      16       3      13      13       7       5       3
       1       3       2       3       1       2       2       2       3       2       1       3       1       3       3      15       4       5       4       3       8      13      10      12       6       5      13      16      14       4       1
       3       3       2       1       3       2       3       3       1       1       1       2       2       3       2      16      12       0       5       3       4       8      12       3      11      16      10       2       2      14       3
       1       3       2       3       3       3       2       2       3       2       3       3       1       2       3      15       6      10       8      14       1       5      15       6      14       8       7       9      12       8       2
       2       1       1       1       1       3       1       1       3       2       3       3       3       2       3      16      11       7       5       2       9      10       0       2       3       2      15      13       1       0       2
       3       3       2       1       3       3       2       1       2       2       3       1       3       3       3       0       7      13      11       6      16       1       7       9       2       5       3      13       5      14       1
       1       2       1       1       2       2       3       2       2       3       3       3       2       3       3       4      14       5       7       7       0       9      13       0      16       7       7      14       2       1       3
       2       2       2       3       1       3       1       1       3       2       2       3       2       3       3       1       4       2       5      10       9       2       7      10      16      15       1       3       0      15       3
       3       3       2       3       3       3       2       1       1       1       3       2       3       3       3       0      14      14      14       1       3       4       0       5       9       8       7      12       4       6       3
       3       1       1       2       3       2       3       2       2       3       2       2       3       2       2      11       2       9       7      13      13       9       2       0      15      14      10       2       0      16       3
       1       2       3       1       3       2       1       1       1       2       2       3       1       3       1       9       5       2       0       6      15      13       1       5       6      16       2       5       0      11       3
       3       3       3       3       3       1       2       3       2       2       3       1       2       3       1       1       6       0       4       2       7       9      13       7       4      15       3       6       7       3       2
       2       3       3       2       2       3       2       1       1       3       2       3       3       1       2       1      11       0       9       7       7      16       0       2       4       7      14      10      16      16       1
       3       2       1       2       3       1       2       2       1       2       1       1       1       2       1      15       3      15       2       3      15       8       7      11      14       6      10       0       7       9       3
       1       1       3       1       3       3       3       2       1       3       3       2       1       2       3       1       1       4       3      13      10      13      10       1      13      12      12       0       8      11       1
       3       1       3       3       2       1       1       1       2       2       2       2       1       2       3       5       3      14       4       1       1      11       6       0      12      12      14      13       7       2       1
       3       2       2       2       3       3       2       3       3       2       2       2       3       3       2       7      15       2      10      11       8      14      14      13      13      15      11       4      13       7       1
       2       2       1       3       3       2       2       3       1       2       2       2       3       2       1       8      16       4      14      16       8       6       8       8       0      14       6       7       7      14       2
       3       1       1       3       1       3       2       2       2       3       2       3       3       1       3       2       9       1       0      16      13      12       6       4       4       4      16       7       4      11       3
       1       2       2       3       3       1       2       2       3       2       3       1       2       3       3      15      16       8      11       6      13       7       9       9      14       4       9      14      11      15       2
       2       2       1       2       3       2       1       2       2       1       2       1       3       2       1       2       2       9      12       7      10      15       6      10      14      16       2      13       7       4       2
       3       1       3       2       3       2       1       2       1       3       1       2       3       1       1       8       3       5      10       6       5       1      15       9       8       8       0      10       8       3       1
       3       2       2       3       2       2       2       3       2       2       2       2       3       2       3       7      16       9       8      13      13      12       6       1      12      10      11       9       1       2       1
       3       1       2       3       2       3       2       3       3       2       2       3       3       2       3       4       0      15      14      15       4       1       1       9       0       6       3      15       7       6       1
       3       2       3       2       1       3       2       2       3       2       3       3       3       2       3      11       5       8       3      11       7      16       1      15      16      14       4       9       7       7       2
       3       2       3       3       3       1       2       1       2       3       3       2       1       1       2       1      16      12      16       5       3       7       6      14       5       4       6      12       1       1       3
       3       1       2       3       3       2       3       3       1       3       2       3       2       3       3      16      15       4      13       0      10       3       9      14       3       4       0       4      10       3       1
       1       1       3       3       1       3       1       1       2       1       1       1       1       1       2      14       7       7       9       5       0       7       8       5      10       3       1      14       9      12       3
       3       3       2       1       1       2       2       2       1       2       3       1       3       1       2       9       2       6       5      11      13       8      11       5       2      16       0      13       4       3       2
       2       3       1       1       3       2       3       1       3       3       2       3       1       1       1      12       4      14       0      12      12      12      10      10       2      12       7       4      12       3       1
       2       1       1       2       3       3       2       3       2       1       1       1       3       3       3      12      13      11       9       1      11       2      15      11       1      14      12       2       1      11       1
       1       2       3       2       1       2       2       2       3       3       2       1       3       3       3      13       5      15       7       3       6      15       0      16       5       7      14       1       8       9       1
       3       2       2       1       2       3       1       2       2       3       2       3       1       3       3      11      15       1       5       3       1      10       5       8       7      10      15       3      11      16       2
       2       2       2       2       2       1       3       2       2       1       3       3       2       1       2      14       3      15      12      11       3       6       1       3       4      11       8      12       0      11       3
       1       2       1       1       1       2       1       3       2       3       1       2       3       2       1      12       6       3       0       7       5      13       2       1       6      15       7       8       3      14       2
       2       2       3       1       1       1       3       2       3       1       1       3       2       1       2      13       5       8      13      11      15       5      12       2       6       1       6      14       5      10       3
       2       3       2       1       2       1       3       2       2       3       2       3       3       2       3       1       0      10       5       2      13       1      14       8       4       2      12      13      13       6       1
       1       2       2       1       2       1       2       1       1       1       1       1       2       3       2       7       9      14       0       2      15       0      15       1      14       7      16       6       2       3       3
       2       3       3       3       2       1       2       1       1       3       3       3       3       1       2       8       4      15       8       9      14      16       9      13      10       6       4       5      16       4       3
       1       1       3       3       1       2       2       3       2       1       3       2       2       1       2       3      11      14       3       3      10      11       0       3       9      10       1       8       1       9       2
       3       1       2       2       3       3       3       3       1       3       2       3       2       3       3      13       6       1       1       2       0       8       2       9      15      13       3       9       4      11       1
       1       2       1       2       2       3       3       3       2       3       3       2       2       1       2      12      13      15       5       6       5      12      15       8      14       3       5      15       6       3       3
       3       3       2       1       2       3       2       2       2       1       2       3       2       2       1       3       1      11      16      14       1      16       1      16       9       6       4       8      14      11       3
       2       2       1       3       3       2       1       3       1       3       3       2       2       1       2      12       1       6      14      14       0       2      14       5       4       1       2      13      16       0       3
       2       3       2       3       3       2       2       2       1       2       2       2       3       1       3      14      14      10       9       7      16       1      15       4       3       5      15       5       2       1       3
       3       3       3       2       1       1       1       3       1       2       3       1       1       3       1      10       1       8       1      12       6       5       6       2       0      12       9       3       4      15       1
       2       3       3       3       2       2       1       1       1       2       3       3       3       3       3      13      10       0      15      10      12       7       1       6      12      10       7      13       6       5       1
       2       1       2       3       1       1       2       2       1       1       1       3       1       3       1       7       9      16       2       0       4      13      11      14       6      16      15       8       3       7       3
       3       3       3       1       2       1       3       3       3       1       1       2       3       1       2       7       8      12       4      13      14       1      10       7       9      10       1      15      12      10       1
       3       1       3       2       3       1       2       1       1       3       1       2       2       1       2       4      13       0       9      14       7      14       1       7      14      11       3       0       3      15       2
       2       3       2       2       1       1       1       1       1       2       1       3       3       1       2      16      12       8      10       1       5      10      16      16       6       6      12       5       7       5       2
       2       3       2       1       3       1       1       3       1       3       1       2       1       2       3       2       9       5      12       5       7       9       5      14       9      10      12       5       5       0       2
       2       2       1       2       2       2       2       3       2       2       1       1       3       2       2       5       7      13       2       6      13       7      15      13       9       2       7      16       5       4       2
       2       2       3       3       1       3       1       3       2       3       2       1       3       2       2       1       5       0       8      10      11       5       1       6       0      16       3      13      15       1       3
       3       3       1       2       3       3       1       3       3       2       1       1       1       1       1       8      12       5      11      15       5       9       5      16       5      14      15       6       7      11       1
       1       2       2       2       3       2       1       2       1       3       1       3       1       1       3      10       6       6      14       3      10       3      13       5       8      10      15       9       3       7       3
       1       3       1       3       3       2       1       1       3       2       1       1       3       2       2      12       9      16      15       9      11       6      13      16      15       2       1       1      13       5       3
       3       2       1       1       1       3       1       1       3       1       1       2       2       1       1      16       5       9       7      12       9       8       9      16       0      14       2       2      10       0       3
       2       1       1       2       1       3       1       2       1       2       2       2       2       2       3      15       3      13      13       8       4       0       1       2      13      10       0       4      10       8       3
       3       3       2       1       2       1       3       2       2       3       1       3       2       3       3      15       4       5       4       8      10       7      11       9       0       0      12      13       0       4       2
       3       1       3       2       2       3       2       1       1       2       2       1       2       2       2      11      14       2       3      15      16      12       0       6       7      15      11       0       4      12       2
       3       2       1       1       2       1       1       3       2       2       2       1       1       1       2       4       0       6      15      14       6       3      14      16      14      10       1       1       3       2       2
       2       1       1       1       3       1       1       2       2       2       3       2       2       3       3       9       0      14       3       2       9      14      13      10       8       1      14      10       4       2       3
       2       3       2       2       2       2       3       3       2       2       2       1       2       2       2      12       0       2      12       7       1      12      12      14      14       8       7       4       1       6       1
       2       1       2       2       2       3       3       3       3       3       1       1       3       3       3      14      15       8       7       5      16      12       3       2      11      12      13       5      14       7       1
       2       1       3       1       2       1       3       2       1       3       2       3       3       2       1      15       9      11       2       8       4       2      10       5       3       3       4      10       5      14       1
       3       3       2       3       2       2       3       1       2       1       1       3       1       1       1      12       0      13      13       8       2       5       2       9       6      10      14       7       3       0       1
       1       2       2       2       1       1       1       2       1       3       2       3       2       2       3       2       3      10      13       8      16       8      14      15      14      12      16      14      12       6       2
       2       1       2       1       3       1       2       1       3       1       2       2       2       3       2       4       2      11      16       7       2       6      13      10      14      13       1       3      14      14       3
       2       3       1       3       1       1       3       1       1       3       2       3       1       3       3       2      11      13      11      10       1      12       9      11      16      13       9      14       7      10       2
       1       1       2       3       2       1       2       2       2       3       3       1       2       3       2       4      16       7       8      14       5      14       6       3      13      15      11      11       2      11       2
       2       1       2       3       1       1       1       1       1       1       1       3       3       1       3      15      15       4       1      10       1       0      10       4      15       5       6      10       3       4       1
       1       1       1       3       1       1       3       2       2       1       2       2       2       1       2       2       5       9       8       3      12       5       8      16      12       3       5      14       5      16       3
       1       1       2       1       3       3       1       2       2       3       2       3       3       2       2       9       6       1      12       0       7       7      12       3       9      11       2      15       8       0       1
       2       1       1       1       3       2       1       3       3       2       1       3       2       3       1       7       4      13       4       8      13      15      11      12       6       8      11       8      11       5       1
       2       3       1       2       2       2       2       1       2       1       3       1       1       1       1      12       6      15       6       0      14       2       5       8      14      15       8      14      12      12       3
       2       3       2       1       1       3       3       2       3       3       1       2       1       2       3      13       2      14       4       1       3      10       0       0       2      12      16      14       0      14       2
       1       3       1       2       3       2       2       2       1       1       2       2       2       3       2      12      10       1      16       4       8      12       9       4       3      10       4       8      12      16       3
      23      15      13      15      17      22      15      22      23      18      22      23      17      22      20
      48      31      25      29      36      43      29      44      43      37      42      48      35      45      43
     108      59      40      40      59      67      68      53     103      70      87     112      79      63      57