M+/results-log/S1-15-M+/S1-10-15-1-s-M+.log
CPXPARAM_Read_DataCheck                          1
Found incumbent of value 0.000000 after 0.00 sec. (0.04 ticks)
Tried aggregator 1 time.
MIP Presolve modified 1 coefficients.
Reduced MIP has 146 rows, 1515 columns, and 7560 nonzeros.
Reduced MIP has 1515 binaries, 0 generals, 0 SOSs, and 0 indicators.
Presolve time = 0.00 sec. (2.98 ticks)
Probing time = 0.01 sec. (1.96 ticks)
Tried aggregator 1 time.
Reduced MIP has 146 rows, 1515 columns, and 7560 nonzeros.
Reduced MIP has 1515 binaries, 0 generals, 0 SOSs, and 0 indicators.
Presolve time = 0.00 sec. (3.51 ticks)
Probing time = 0.00 sec. (1.87 ticks)
Clique table members: 2236.
MIP emphasis: balance optimality and feasibility.
MIP search method: dynamic search.
Parallel mode: deterministic, using up to 4 threads.
Root relaxation solution time = 0.02 sec. (4.51 ticks)

        Nodes                                         Cuts/
   Node  Left     Objective  IInf  Best Integer    Best Bound    ItCnt     Gap

*     0+    0                            0.0000     9169.0000              --- 
      0     0     1985.5883    17        0.0000     1985.5883      240     --- 
      0     0     1865.3312   130        0.0000     Cuts: 148      444     --- 
      0     0     1836.7551   177        0.0000     Cuts: 136      602     --- 
*     0+    0                         1799.0000     1836.7551             2.10%
      0     0     1832.1729   195     1799.0000      Cuts: 51      691    1.84%
*     0+    0                         1811.0000     1832.1729             1.17%
      0     0     1830.9866   224     1811.0000      Cuts: 38      756    1.10%
      0     0     1828.9918   183     1811.0000      Cuts: 35      826    0.99%
      0     0     1828.6608   196     1811.0000      Cuts: 22      859    0.98%
      0     0     1828.5329   159     1811.0000       Cuts: 9      883    0.97%
      0     0     1828.2738   165     1811.0000      Cuts: 11      909    0.95%
      0     0     1828.1969   250     1811.0000      Cuts: 10      943    0.95%
      0     0     1828.1218   233     1811.0000      Cuts: 11      966    0.95%
      0     0     1828.0363   207     1811.0000       Cuts: 3      996    0.94%
*     0+    0                         1819.0000     1828.0363             0.50%
      0     0     1828.0023   101     1819.0000       Cuts: 6     1009    0.49%

Repeating presolve.
Tried aggregator 1 time.
MIP Presolve eliminated 3 rows and 497 columns.
MIP Presolve modified 12 coefficients.
Reduced MIP has 143 rows, 1018 columns, and 4871 nonzeros.
Reduced MIP has 1018 binaries, 0 generals, 0 SOSs, and 0 indicators.
Presolve time = 0.00 sec. (2.17 ticks)
Probing time = 0.00 sec. (1.33 ticks)
Tried aggregator 1 time.
Reduced MIP has 143 rows, 1018 columns, and 4871 nonzeros.
Reduced MIP has 1018 binaries, 0 generals, 0 SOSs, and 0 indicators.
Presolve time = 0.02 sec. (2.30 ticks)
Represolve time = 0.02 sec. (11.87 ticks)
Probing time = 0.00 sec. (1.31 ticks)
Clique table members: 835.
MIP emphasis: balance optimality and feasibility.
MIP search method: dynamic search.
Parallel mode: deterministic, using up to 4 threads.
Root relaxation solution time = 0.03 sec. (26.05 ticks)

        Nodes                                         Cuts/
   Node  Left     Objective  IInf  Best Integer    Best Bound    ItCnt     Gap

*     0+    0                         1819.0000     1828.0023             0.49%
      0     0     1828.0023    97     1819.0000     1828.0023     1724    0.49%
      0     0     1828.0023    98     1819.0000       Cuts: 6     1725    0.49%
*     0+    0                         1820.0000     1828.0023             0.44%
      0     2     1828.0023    98     1820.0000     1827.8299     1725    0.43%
Elapsed time = 0.69 sec. (377.34 ticks, tree = 0.01 MB, solutions = 5)
*    94    60      integral     0     1821.0000     1827.8299     2897    0.38%
*   151+   65                         1823.0000     1827.8299             0.26%
*   243+   11                         1825.0000     1826.4265             0.08%

Clique cuts applied:  154
Cover cuts applied:  80
Flow cuts applied:  4
Mixed integer rounding cuts applied:  22
Zero-half cuts applied:  14

Root node processing (before b&c):
  Real time             =    0.69 sec. (377.02 ticks)
Parallel b&c, 4 threads:
  Real time             =    0.16 sec. (94.80 ticks)
  Sync time (average)   =    0.05 sec.
  Wait time (average)   =    0.00 sec.
                          ------------
Total (root+branch&cut) =    0.84 sec. (471.82 ticks)
